*HEADING
** Abaqus Acoustic Transmission Loss Simulation - Continuous Gradient
** 2D Waveguide with Continuous Stratification
** Frequency Range: 100-5000 Hz
** Units: SI (m-kg-s-Pa)
** Field Variable F1 represents depth (z-coordinate)
**
*PREPRINT, ECHO=NO, MODEL=NO, HISTORY=NO, CONTACT=NO
**
** PARTS
**
*Part, name=WAVEGUIDE_GRAD
*Node
      1,           0.,           0.
      2,          10.,           0.
      3,          10.,          20.
      4,           0.,          20.
      5,          10.,          40.
      6,           0.,          40.
      7,          10.,          60.
      8,           0.,          60.
      9,          10.,          80.
     10,           0.,          80.
     11,          10.,         100.
     12,           0.,         100.
     13,          10.,         120.
     14,           0.,         120.
     15,          10.,         140.
     16,           0.,         140.
     17,          10.,         160.
     18,           0.,         160.
     19,          10.,         180.
     20,           0.,         180.
     21,          10.,         200.
     22,           0.,         200.
**
** Additional nodes for finer mesh (every 2.5m in x, every 10m in z)
     23,           2.5,          0.
     24,           5.,           0.
     25,           7.5,          0.
     26,           2.5,         10.
     27,           5.,          10.
     28,           7.5,         10.
     29,           0.,          10.
     30,          10.,          10.
     31,           2.5,         20.
     32,           5.,          20.
     33,           7.5,         20.
     34,           2.5,         30.
     35,           5.,          30.
     36,           7.5,         30.
     37,           0.,          30.
     38,          10.,          30.
     39,           2.5,         40.
     40,           5.,          40.
     41,           7.5,         40.
     42,           2.5,         50.
     43,           5.,          50.
     44,           7.5,         50.
     45,           0.,          50.
     46,          10.,          50.
     47,           2.5,         60.
     48,           5.,          60.
     49,           7.5,         60.
     50,           2.5,         70.
     51,           5.,          70.
     52,           7.5,         70.
     53,           0.,          70.
     54,          10.,          70.
     55,           2.5,         80.
     56,           5.,          80.
     57,           7.5,         80.
     58,           2.5,         90.
     59,           5.,          90.
     60,           7.5,         90.
     61,           0.,          90.
     62,          10.,          90.
     63,           2.5,        100.
     64,           5.,         100.
     65,           7.5,        100.
     66,           2.5,        110.
     67,           5.,         110.
     68,           7.5,        110.
     69,           0.,         110.
     70,          10.,         110.
     71,           2.5,        120.
     72,           5.,         120.
     73,           7.5,        120.
     74,           2.5,        130.
     75,           5.,         130.
     76,           7.5,        130.
     77,           0.,         130.
     78,          10.,         130.
     79,           2.5,        140.
     80,           5.,         140.
     81,           7.5,        140.
     82,           2.5,        150.
     83,           5.,         150.
     84,           7.5,        150.
     85,           0.,         150.
     86,          10.,         150.
     87,           2.5,        160.
     88,           5.,         160.
     89,           7.5,        160.
     90,           2.5,        170.
     91,           5.,         170.
     92,           7.5,        170.
     93,           0.,         170.
     94,          10.,         170.
     95,           2.5,        180.
     96,           5.,         180.
     97,           7.5,        180.
     98,           2.5,        190.
     99,           5.,         190.
    100,           7.5,        190.
    101,           0.,         190.
    102,          10.,         190.
    103,           2.5,        200.
    104,           5.,         200.
    105,           7.5,        200.
**
*Element, type=AC2D4
** Layer 1: 0-20m depth
    1,     1,    23,    26,    29
    2,    23,    24,    27,    26
    3,    24,    25,    28,    27
    4,    25,     2,    30,    28
    5,    29,    26,    31,     4
    6,    26,    27,    32,    31
    7,    27,    28,    33,    32
    8,    28,    30,     3,    33
** Layer 2: 20-40m depth
    9,     4,    31,    34,    37
   10,    31,    32,    35,    34
   11,    32,    33,    36,    35
   12,    33,     3,    38,    36
   13,    37,    34,    39,     6
   14,    34,    35,    40,    39
   15,    35,    36,    41,    40
   16,    36,    38,     5,    41
** Layer 3: 40-60m depth
   17,     6,    39,    42,    45
   18,    39,    40,    43,    42
   19,    40,    41,    44,    43
   20,    41,     5,    46,    44
   21,    45,    42,    47,     8
   22,    42,    43,    48,    47
   23,    43,    44,    49,    48
   24,    44,    46,     7,    49
** Layer 4: 60-80m depth
   25,     8,    47,    50,    53
   26,    47,    48,    51,    50
   27,    48,    49,    52,    51
   28,    49,     7,    54,    52
   29,    53,    50,    55,    10
   30,    50,    51,    56,    55
   31,    51,    52,    57,    56
   32,    52,    54,     9,    57
** Layer 5: 80-100m depth
   33,    10,    55,    58,    61
   34,    55,    56,    59,    58
   35,    56,    57,    60,    59
   36,    57,     9,    62,    60
   37,    61,    58,    63,    12
   38,    58,    59,    64,    63
   39,    59,    60,    65,    64
   40,    60,    62,    11,    65
** Layer 6: 100-120m depth
   41,    12,    63,    66,    69
   42,    63,    64,    67,    66
   43,    64,    65,    68,    67
   44,    65,    11,    70,    68
   45,    69,    66,    71,    14
   46,    66,    67,    72,    71
   47,    67,    68,    73,    72
   48,    68,    70,    13,    73
** Layer 7: 120-140m depth
   49,    14,    71,    74,    77
   50,    71,    72,    75,    74
   51,    72,    73,    76,    75
   52,    73,    13,    78,    76
   53,    77,    74,    79,    16
   54,    74,    75,    80,    79
   55,    75,    76,    81,    80
   56,    76,    78,    15,    81
** Layer 8: 140-160m depth
   57,    16,    79,    82,    85
   58,    79,    80,    83,    82
   59,    80,    81,    84,    83
   60,    81,    15,    86,    84
   61,    85,    82,    87,    18
   62,    82,    83,    88,    87
   63,    83,    84,    89,    88
   64,    84,    86,    17,    89
** Layer 9: 160-180m depth
   65,    18,    87,    90,    93
   66,    87,    88,    91,    90
   67,    88,    89,    92,    91
   68,    89,    17,    94,    92
   69,    93,    90,    95,    20
   70,    90,    91,    96,    95
   71,    91,    92,    97,    96
   72,    92,    94,    19,    97
** Layer 10: 180-200m depth
   73,    20,    95,    98,   101
   74,    95,    96,    99,    98
   75,    96,    97,   100,    99
   76,    97,    19,   102,   100
   77,   101,    98,   103,    22
   78,    98,    99,   104,   103
   79,    99,   100,   105,   104
   80,   100,   102,    21,   105
**
** ELEMENT SET FOR ALL ELEMENTS
*Elset, elset=ALL_ELEMENTS
 1, 2, 3, 4, 5, 6, 7, 8, 9, 10,
 11, 12, 13, 14, 15, 16, 17, 18, 19, 20,
 21, 22, 23, 24, 25, 26, 27, 28, 29, 30,
 31, 32, 33, 34, 35, 36, 37, 38, 39, 40,
 41, 42, 43, 44, 45, 46, 47, 48, 49, 50,
 51, 52, 53, 54, 55, 56, 57, 58, 59, 60,
 61, 62, 63, 64, 65, 66, 67, 68, 69, 70,
 71, 72, 73, 74, 75, 76, 77, 78, 79, 80
**
** NODE SETS FOR BOUNDARIES AND PROBES
*Nset, nset=INLET
 1, 23, 24, 25, 2
*Nset, nset=OUTLET
 22, 103, 104, 105, 21
*Nset, nset=LEFT_WALL
 1, 29, 4, 37, 6, 45, 8, 53, 10, 61, 12, 69, 14, 77, 16, 85, 18, 93, 20, 101, 22
*Nset, nset=RIGHT_WALL
 2, 30, 3, 38, 5, 46, 7, 54, 9, 62, 11, 70, 13, 78, 15, 86, 17, 94, 19, 102, 21
*Nset, nset=PROBE_IN
 29, 26, 27, 28, 30
*Nset, nset=PROBE_OUT
 101, 98, 99, 100, 102
**
** SURFACES FOR BOUNDARY CONDITIONS
*Surface, type=ELEMENT, name=SURF_INLET
 1, S3
 2, S3
 3, S3
 4, S3
*Surface, type=ELEMENT, name=SURF_OUTLET
 77, S1
 78, S1
 79, S1
 80, S1
*Surface, type=ELEMENT, name=SURF_LEFT
 1, S4
 5, S4
 9, S4
 13, S4
 17, S4
 21, S4
 25, S4
 29, S4
 33, S4
 37, S4
 41, S4
 45, S4
 49, S4
 53, S4
 57, S4
 61, S4
 65, S4
 69, S4
 73, S4
 77, S4
*Surface, type=ELEMENT, name=SURF_RIGHT
 4, S2
 8, S2
 12, S2
 16, S2
 20, S2
 24, S2
 28, S2
 32, S2
 36, S2
 40, S2
 44, S2
 48, S2
 52, S2
 56, S2
 60, S2
 64, S2
 68, S2
 72, S2
 76, S2
 80, S2
*End Part
**
**
** ASSEMBLY
**
*Assembly, name=Assembly
**
*Instance, name=WAVEGUIDE_GRAD-1, part=WAVEGUIDE_GRAD
*End Instance
**
*End Assembly
**
** ANALYTICAL FIELD FOR DEPTH VARIATION
**
*Field, name=DEPTH_FIELD
*Field Output, variable=COORD
**
** MATERIALS WITH FIELD VARIABLE DEPENDENCE
**
*Material, name=WATER_GRADIENT
*Density, dependencies=1
** Density variation: rho(z) = 1000 + 0.15*z (kg/m³)
1000.,     0.
1005.,    33.33
1010.,    66.67
1015.,   100.
1020.,   133.33
1025.,   166.67
1030.,   200.
*Bulk Modulus, dependencies=1
** Bulk modulus variation: K(z) = 2.2e9 + 600000*z (Pa)
2.2e9,     0.
2.22e9,   33.33
2.24e9,   66.67
2.26e9,  100.
2.28e9,  133.33
2.30e9,  166.67
2.32e9,  200.
**
** SECTIONS
**
*Solid Section, elset=WAVEGUIDE_GRAD-1.ALL_ELEMENTS, material=WATER_GRADIENT
**
** INITIAL CONDITIONS FOR FIELD VARIABLE
**
*Initial Conditions, type=FIELD, variable=1
** F1 = z-coordinate (depth)
WAVEGUIDE_GRAD-1.ALL_ELEMENTS, COORD2
**
** STEP: STEADY STATE DYNAMICS
**
*Step, name=SSD_GRADIENT, nlgeom=NO
*Steady State Dynamics, Direct
** Frequency range: 100-5000 Hz, increment 25 Hz
100., 5000., 25.
**
** INCIDENT WAVE LOADING
**
*Incident Wave Interaction Property, name=PLANEWAVE_GRAD
*Incident Wave Fluid Property
** Density and sound speed for incident field (surface water properties)
1000., 1483.24
**
*Incident Wave Interaction, name=INCIDENT_GRAD, property=PLANEWAVE_GRAD
WAVEGUIDE_GRAD-1.SURF_INLET, 0., 1., 0.
**
** NON-REFLECTING BOUNDARIES
**
*Impedance, type=NONREFLECTING
WAVEGUIDE_GRAD-1.SURF_OUTLET,
WAVEGUIDE_GRAD-1.SURF_LEFT,
WAVEGUIDE_GRAD-1.SURF_RIGHT,
**
** OUTPUT REQUESTS
**
*Output, field, frequency=1
*Node Output
P,
*Element Output
FV,
**
*Output, history, frequency=1
*Node Print, nset=WAVEGUIDE_GRAD-1.PROBE_IN
P,
*Node Print, nset=WAVEGUIDE_GRAD-1.PROBE_OUT
P,
**
*End Step