*HEADING
** Abaqus Input File for Acoustic Transmission Loss Analysis
** 2D Continuous Gradient Stratified Medium
** Thermocline-like profile using Field Variables
** Units: SI (m-kg-s-Pa)
** Frequency range: 100-5000 Hz
** =====================================================
**
*NODE, NSET=ALL_NODES
** Node definitions for 10m x 2m domain
** Using structured mesh with ~0.05m element size
1,    0.000000,    0.000000
2,    0.050000,    0.000000
3,    0.100000,    0.000000
4,    0.150000,    0.000000
5,    0.200000,    0.000000
** ... (full mesh continues - abbreviated for space)
7999,  9.950000,    2.000000
8000, 10.000000,    2.000000
**
*ELEMENT, TYPE=AC2D4, ELSET=FLUID_DOMAIN
** Single element set for entire domain (no partitions)
1, 1, 2, 42, 41
2, 2, 3, 43, 42
3, 3, 4, 44, 43
4, 4, 5, 45, 44
** ... (elements continue throughout domain)
7599, 7959, 7960, 8000, 7999
**
** =====================================================
** MATERIAL DEFINITION - Field-dependent properties
** =====================================================
**
*MATERIAL, NAME=WATER_GRADIENT
** Density varies with field variable FV1 (normalized depth)
** Thermocline-like profile: rapid transition in middle
*DENSITY, DEPENDENCIES=1
** (Density, FV1)
** Top region (FV1=0 to 0.3) - warm water
950.0, 0.00
951.0, 0.05
952.0, 0.10
953.0, 0.15
954.0, 0.20
955.0, 0.25
956.0, 0.30
** Thermocline region (FV1=0.3 to 0.7) - rapid transition
958.0, 0.35
965.0, 0.40
980.0, 0.45
1000.0, 0.50
1020.0, 0.55
1035.0, 0.60
1042.0, 0.65
** Bottom region (FV1=0.7 to 1.0) - cold water
1044.0, 0.70
1045.0, 0.75
1046.0, 0.80
1047.0, 0.85
1048.0, 0.90
1049.0, 0.95
1050.0, 1.00
**
** Bulk modulus also varies with FV1
*ACOUSTIC MEDIUM, DEPENDENCIES=1
** (Bulk Modulus, Density, FV1)
** Values correspond to sound speed variations
** Top region - lower bulk modulus
2.00E+09, 950.0, 0.00
2.01E+09, 951.0, 0.05
2.02E+09, 952.0, 0.10
2.03E+09, 953.0, 0.15
2.04E+09, 954.0, 0.20
2.05E+09, 955.0, 0.25
2.06E+09, 956.0, 0.30
** Thermocline region - rapid change
2.07E+09, 958.0, 0.35
2.09E+09, 965.0, 0.40
2.12E+09, 980.0, 0.45
2.15E+09, 1000.0, 0.50
2.17E+09, 1020.0, 0.55
2.19E+09, 1035.0, 0.60
2.195E+09, 1042.0, 0.65
** Bottom region - higher bulk modulus
2.196E+09, 1044.0, 0.70
2.197E+09, 1045.0, 0.75
2.198E+09, 1046.0, 0.80
2.199E+09, 1047.0, 0.85
2.199E+09, 1048.0, 0.90
2.20E+09, 1049.0, 0.95
2.20E+09, 1050.0, 1.00
**
** =====================================================
** SECTION ASSIGNMENT
** =====================================================
**
*SOLID SECTION, ELSET=FLUID_DOMAIN, MATERIAL=WATER_GRADIENT
**
** =====================================================
** ANALYTICAL FIELD DEFINITION
** =====================================================
**
** Define field variable as function of Y-coordinate (depth)
** FV1 = Y/2.0 (normalized to 0-1 for domain height of 2m)
*INITIAL CONDITIONS, TYPE=FIELD, VARIABLE=1
ALL_NODES, 0.0
**
** Use analytical field to set spatial variation
*FIELD, VARIABLE=1, DEFINITION=USER DEFINED
** This would be defined through CAE or subroutine
** For direct input file, we specify at nodes
*FIELD, VARIABLE=1
1, 0.000  ** Node 1 at y=0.0
41, 0.025  ** Node at y=0.05
81, 0.050  ** Node at y=0.10
** ... (continues for all nodes based on y-coordinate)
7960, 0.975  ** Node at y=1.95
8000, 1.000  ** Node at y=2.0
**
** =====================================================
** NODE SETS FOR BOUNDARIES AND PROBES
** =====================================================
**
*NSET, NSET=INLET
** Nodes at x=0 (inlet boundary)
1, 41, 81, 121, 161, 201, 241, 281, 321, 361
401, 441, 481, 521, 561, 601, 641, 681, 721, 761
801, 841, 881, 921, 961, 1001, 1041, 1081, 1121, 1161
1201, 1241, 1281, 1321, 1361, 1401, 1441, 1481, 1521, 1561, 1601
**
*NSET, NSET=OUTLET
** Nodes at x=10.0 (outlet boundary)  
7960, 7961, 7962, 7963, 7964, 7965, 7966, 7967, 7968, 7969
7970, 7971, 7972, 7973, 7974, 7975, 7976, 7977, 7978, 7979
7980, 7981, 7982, 7983, 7984, 7985, 7986, 7987, 7988, 7989
7990, 7991, 7992, 7993, 7994, 7995, 7996, 7997, 7998, 7999, 8000
**
*NSET, NSET=TOP
** Nodes at y=2.0 (top boundary)
1601, 1602, 1603, 1604, 1605, 1606, 1607, 1608, 1609, 1610
** ... (continues along top edge)
**
*NSET, NSET=BOTTOM  
** Nodes at y=0.0 (bottom boundary)
1, 2, 3, 4, 5, 6, 7, 8, 9, 10
** ... (continues along bottom edge)
**
*NSET, NSET=PROBE_IN
** Probe plane at x=2.0 (20% of domain length)
1600, 1640, 1680, 1720, 1760, 1800, 1840, 1880, 1920, 1960
2000, 2040, 2080, 2120, 2160, 2200, 2240, 2280, 2320, 2360
2400, 2440, 2480, 2520, 2560, 2600, 2640, 2680, 2720, 2760
2800, 2840, 2880, 2920, 2960, 3000, 3040, 3080, 3120, 3160
**
*NSET, NSET=PROBE_OUT
** Probe plane at x=8.0 (80% of domain length)
6400, 6440, 6480, 6520, 6560, 6600, 6640, 6680, 6720, 6760
6800, 6840, 6880, 6920, 6960, 7000, 7040, 7080, 7120, 7160
7200, 7240, 7280, 7320, 7360, 7400, 7440, 7480, 7520, 7560
7600, 7640, 7680, 7720, 7760, 7800, 7840, 7880, 7920, 7960
**
** =====================================================
** STEADY-STATE DYNAMICS STEP
** =====================================================
**
*STEP, NAME=FREQ_SWEEP_GRADIENT, NLGEOM=NO, PERTURBATION
*STEADY STATE DYNAMICS, DIRECT
** Start freq, End freq, Number of points, Bias
100.0, 5000.0, 197, 1.0
**
** =====================================================
** INCIDENT WAVE LOADING  
** =====================================================
**
** Define incident wave properties (use top layer properties)
*INCIDENT WAVE INTERACTION PROPERTY, NAME=PLANE_WAVE_GRAD, DEFINITION=PLANAR
*INCIDENT WAVE FLUID PROPERTY
** Density, Sound speed of incident medium
950.0, 1451.98
** Reference magnitude (1 Pa), Reference angle (0 deg), Reference frequency
1.0, 0.0, 100.0
**
** Apply incident wave to inlet
*INCIDENT WAVE INTERACTION, INTERACTION PROPERTY=PLANE_WAVE_GRAD, NAME=INC_WAVE_GRAD
INLET,
** Standoff point (not used for planar waves)
0.0, 1.0, 0.0
** Direction cosines (x-direction propagation)
1.0, 0.0, 0.0
**
** =====================================================
** IMPEDANCE BOUNDARIES (Non-reflecting)
** =====================================================
**
*IMPEDANCE, TYPE=NONREFLECTING
OUTLET, 1.0
**
*IMPEDANCE, TYPE=NONREFLECTING
TOP, 1.0
**
*IMPEDANCE, TYPE=NONREFLECTING
BOTTOM, 1.0
**
** =====================================================
** OUTPUT REQUESTS
** =====================================================
**
*OUTPUT, FIELD, FREQUENCY=1
*NODE OUTPUT
P, POR
**
*ELEMENT OUTPUT
PACOR, PAINC, PAREF
**
** Special output for field variable visualization
*NODE OUTPUT
FV
**
*OUTPUT, HISTORY, FREQUENCY=1
*NODE OUTPUT, NSET=PROBE_IN
P
*NODE OUTPUT, NSET=PROBE_OUT
P
**
*END STEP