*HEADING
** Abaqus 3D Acoustic Transmission Loss Analysis
** 3D Rectangular Waveguide with Layered Stratification
** Dimensions: 10m x 2m x 2m (L x W x H)
** Units: SI (m-kg-s-Pa)
** =====================================================
**
*NODE, NSET=ALL_NODES
** Simplified 3D mesh (actual would have more nodes)
** Corner nodes of the domain
1,    0.000,  0.000,  0.000
2,   10.000,  0.000,  0.000  
3,   10.000,  2.000,  0.000
4,    0.000,  2.000,  0.000
5,    0.000,  0.000,  2.000
6,   10.000,  0.000,  2.000
7,   10.000,  2.000,  2.000
8,    0.000,  2.000,  2.000
** Interior nodes (abbreviated)
101,  0.500,  0.500,  0.500
102,  1.000,  0.500,  0.500
** ... (full mesh continues)
**
*ELEMENT, TYPE=AC3D8, ELSET=ACOUSTIC_DOMAIN
** 8-node 3D acoustic elements
1, 1, 2, 3, 4, 5, 6, 7, 8
** ... (more elements)
**
** =====================================================
** MATERIAL PROPERTIES FOR 3D MODEL
** =====================================================
**
*MATERIAL, NAME=WATER_3D
*DENSITY
1000.0,
*ACOUSTIC MEDIUM
2.15E+09, 1000.0
**
** =====================================================
** SECTION ASSIGNMENT
** =====================================================
**
*SOLID SECTION, ELSET=ACOUSTIC_DOMAIN, MATERIAL=WATER_3D
**
** =====================================================
** BOUNDARY SETS FOR 3D DOMAIN
** =====================================================
**
*NSET, NSET=INLET_3D
** Nodes on x=0 plane
1, 4, 5, 8
** ... (all nodes at x=0)
**
*NSET, NSET=OUTLET_3D
** Nodes on x=10 plane  
2, 3, 6, 7
** ... (all nodes at x=10)
**
*NSET, NSET=PROBE_IN_3D
** Nodes on plane at x=2.0
** ... (nodes on YZ plane at x=2)
**
*NSET, NSET=PROBE_OUT_3D
** Nodes on plane at x=8.0
** ... (nodes on YZ plane at x=8)
**
** =====================================================
** 3D STEADY-STATE DYNAMICS
** =====================================================
**
*STEP, NAME=FREQ_SWEEP_3D, PERTURBATION
*STEADY STATE DYNAMICS, DIRECT
100.0, 2000.0, 50.0, 1.0
**
** =====================================================
** 3D INCIDENT WAVE
** =====================================================
**
*INCIDENT WAVE INTERACTION PROPERTY, NAME=WAVE_3D, DEFINITION=PLANAR
*INCIDENT WAVE FLUID PROPERTY
1000.0, 1464.5
1.0, 0.0, 100.0
**
*INCIDENT WAVE INTERACTION, INTERACTION PROPERTY=WAVE_3D, NAME=INC_3D
INLET_3D,
0.0, 1.0, 1.0
1.0, 0.0, 0.0
**
** =====================================================
** 3D NON-REFLECTING BOUNDARIES
** =====================================================
**
*IMPEDANCE, TYPE=NONREFLECTING
OUTLET_3D, 1.0
**
** =====================================================
** OUTPUT FOR 3D ANALYSIS
** =====================================================
**
*OUTPUT, FIELD, FREQUENCY=1
*NODE OUTPUT
P, POR
*ELEMENT OUTPUT
PACOR, PAINC
**
*OUTPUT, HISTORY
*NODE OUTPUT, NSET=PROBE_IN_3D
P
*NODE OUTPUT, NSET=PROBE_OUT_3D
P
**
*END STEP