*HEADING
** Abaqus Input File for Acoustic Transmission Loss Analysis
** 2D Layered Stratified Medium (5 layers)
** Units: SI (m-kg-s-Pa)
** Frequency range: 100-5000 Hz
** =====================================================
**
*NODE, NSET=ALL_NODES
** Node definitions for 10m x 2m domain
** Using structured mesh with ~0.05m element size
** Total nodes: ~8000 (200x40 grid)
1,    0.000000,    0.000000
2,    0.050000,    0.000000
3,    0.100000,    0.000000
4,    0.150000,    0.000000
5,    0.200000,    0.000000
** ... (abbreviated for space - full mesh would have 8000+ nodes)
** Last nodes at outlet
7999,  9.950000,    2.000000
8000, 10.000000,    2.000000
**
*ELEMENT, TYPE=AC2D4, ELSET=LAYER1
** Elements for Layer 1 (y: 0.0-0.4m)
1, 1, 2, 42, 41
2, 2, 3, 43, 42
3, 3, 4, 44, 43
** ... (elements continue)
**
*ELEMENT, TYPE=AC2D4, ELSET=LAYER2
** Elements for Layer 2 (y: 0.4-0.8m)
1601, 1601, 1602, 1642, 1641
1602, 1602, 1603, 1643, 1642
** ... (elements continue)
**
*ELEMENT, TYPE=AC2D4, ELSET=LAYER3
** Elements for Layer 3 (y: 0.8-1.2m)
3201, 3201, 3202, 3242, 3241
** ... (elements continue)
**
*ELEMENT, TYPE=AC2D4, ELSET=LAYER4
** Elements for Layer 4 (y: 1.2-1.6m)
4801, 4801, 4802, 4842, 4841
** ... (elements continue)
**
*ELEMENT, TYPE=AC2D4, ELSET=LAYER5
** Elements for Layer 5 (y: 1.6-2.0m)
6401, 6401, 6402, 6442, 6441
** ... (elements continue)
**
** =====================================================
** MATERIAL DEFINITIONS - Stratified layers
** =====================================================
**
*MATERIAL, NAME=WATER_LAYER1
** Top layer - lowest density
*DENSITY
950.0,
*ACOUSTIC MEDIUM
2.00E+09, 950.0
**
*MATERIAL, NAME=WATER_LAYER2
** Second layer
*DENSITY
975.0,
*ACOUSTIC MEDIUM
2.05E+09, 975.0
**
*MATERIAL, NAME=WATER_LAYER3
** Middle layer
*DENSITY
1000.0,
*ACOUSTIC MEDIUM
2.10E+09, 1000.0
**
*MATERIAL, NAME=WATER_LAYER4
** Fourth layer
*DENSITY
1025.0,
*ACOUSTIC MEDIUM
2.15E+09, 1025.0
**
*MATERIAL, NAME=WATER_LAYER5
** Bottom layer - highest density
*DENSITY
1050.0,
*ACOUSTIC MEDIUM
2.20E+09, 1050.0
**
** =====================================================
** SECTION ASSIGNMENTS
** =====================================================
**
*SOLID SECTION, ELSET=LAYER1, MATERIAL=WATER_LAYER1
*SOLID SECTION, ELSET=LAYER2, MATERIAL=WATER_LAYER2
*SOLID SECTION, ELSET=LAYER3, MATERIAL=WATER_LAYER3
*SOLID SECTION, ELSET=LAYER4, MATERIAL=WATER_LAYER4
*SOLID SECTION, ELSET=LAYER5, MATERIAL=WATER_LAYER5
**
** =====================================================
** NODE SETS FOR BOUNDARIES AND PROBES
** =====================================================
**
*NSET, NSET=INLET
** Nodes at x=0 (inlet boundary)
1, 41, 81, 121, 161, 201, 241, 281, 321, 361
401, 441, 481, 521, 561, 601, 641, 681, 721, 761
801, 841, 881, 921, 961, 1001, 1041, 1081, 1121, 1161
1201, 1241, 1281, 1321, 1361, 1401, 1441, 1481, 1521, 1561, 1601
**
*NSET, NSET=OUTLET
** Nodes at x=10.0 (outlet boundary)
7960, 7961, 7962, 7963, 7964, 7965, 7966, 7967, 7968, 7969
7970, 7971, 7972, 7973, 7974, 7975, 7976, 7977, 7978, 7979
7980, 7981, 7982, 7983, 7984, 7985, 7986, 7987, 7988, 7989
7990, 7991, 7992, 7993, 7994, 7995, 7996, 7997, 7998, 7999, 8000
**
*NSET, NSET=TOP
** Nodes at y=2.0 (top boundary)
1601, 1602, 1603, 1604, 1605, 1606, 1607, 1608, 1609, 1610
** ... (continues along top edge)
**
*NSET, NSET=BOTTOM
** Nodes at y=0.0 (bottom boundary)
1, 2, 3, 4, 5, 6, 7, 8, 9, 10
** ... (continues along bottom edge)
**
*NSET, NSET=PROBE_IN
** Probe plane at x=2.0 (20% of domain length)
1600, 1640, 1680, 1720, 1760, 1800, 1840, 1880, 1920, 1960
2000, 2040, 2080, 2120, 2160, 2200, 2240, 2280, 2320, 2360
2400, 2440, 2480, 2520, 2560, 2600, 2640, 2680, 2720, 2760
2800, 2840, 2880, 2920, 2960, 3000, 3040, 3080, 3120, 3160
**
*NSET, NSET=PROBE_OUT  
** Probe plane at x=8.0 (80% of domain length)
6400, 6440, 6480, 6520, 6560, 6600, 6640, 6680, 6720, 6760
6800, 6840, 6880, 6920, 6960, 7000, 7040, 7080, 7120, 7160
7200, 7240, 7280, 7320, 7360, 7400, 7440, 7480, 7520, 7560
7600, 7640, 7680, 7720, 7760, 7800, 7840, 7880, 7920, 7960
**
** =====================================================
** ELEMENT SETS FOR OUTPUT
** =====================================================
**
*ELSET, ELSET=ALL_ELEMENTS
LAYER1, LAYER2, LAYER3, LAYER4, LAYER5
**
** =====================================================
** STEADY-STATE DYNAMICS STEP
** =====================================================
**
*STEP, NAME=FREQ_SWEEP, NLGEOM=NO, PERTURBATION
*STEADY STATE DYNAMICS, DIRECT
** Start freq, End freq, Number of points, Bias
100.0, 5000.0, 197, 1.0
**
** =====================================================
** INCIDENT WAVE LOADING
** =====================================================
**
** Define incident wave properties
*INCIDENT WAVE INTERACTION PROPERTY, NAME=PLANE_WAVE_PROP, DEFINITION=PLANAR
*INCIDENT WAVE FLUID PROPERTY
** Density, Sound speed of incident medium (use Layer 1 properties)
950.0, 1451.98
** Reference magnitude (1 Pa), Reference angle (0 deg), Reference frequency
1.0, 0.0, 100.0
**
** Apply incident wave to inlet
*INCIDENT WAVE INTERACTION, INTERACTION PROPERTY=PLANE_WAVE_PROP, NAME=INC_WAVE
INLET, 
** Standoff point (not used for planar waves)
0.0, 1.0, 0.0
** Direction cosines (x-direction propagation)
1.0, 0.0, 0.0
**
** =====================================================
** IMPEDANCE BOUNDARIES (Non-reflecting)
** =====================================================
**
*IMPEDANCE, TYPE=NONREFLECTING
OUTLET, 1.0
**
*IMPEDANCE, TYPE=NONREFLECTING  
TOP, 1.0
**
*IMPEDANCE, TYPE=NONREFLECTING
BOTTOM, 1.0
**
** =====================================================
** OUTPUT REQUESTS
** =====================================================
**
*OUTPUT, FIELD, FREQUENCY=1
*NODE OUTPUT
P, POR
**
*ELEMENT OUTPUT
PACOR, PAINC, PAREF
**
*OUTPUT, HISTORY, FREQUENCY=1
*NODE OUTPUT, NSET=PROBE_IN
P
*NODE OUTPUT, NSET=PROBE_OUT  
P
**
*END STEP